Maximize
  0 x0 + 40 x1 + 22 x2 + 0 x3 + 0 x4 + 24 x5 - 2 x6 + 0 x7 - x8 - 42 x9
   + 23 x10 + 0 x11 + 0 x12 + 0 x13 + 4 x14 + 0 x15 + 6 x16 - 28 x17
   + 44 x18 + 37 x19 + 0 x20 + 0 x21 + 22 x22 - 39 x23 - 48 x24 + 0 x25
   - 36 x26 - 41 x27 - 17 x28 - 32 x29 + 0 x30 - 45 x31 - 42 x32 - 16 x33
   + 0 x34 + 27 x35 + 26 x36 + 0 x37 - 47 x38 + 0 x39 + 48 x40 + 0 x41
   + 0 x42 + 5 x43 + 0 x44 + 29 x45 + 0 x46 + 0 x47 + 0 x48 - 10 x49
   + 27 x50 + 0 x51 + 0 x52 + 31 x53 + 0 x54 + 0 x55 + 0 x56 - 2 x57
   + 0 x58 + 0 x59 + 0 x60 + 34 x61 + 0 x62 + 0 x63 - 20 x64 + 0 x65
   + 0 x66 + 0 x67 + 0 x68 + 0 x69 - 48 x70 + 0 x71 + 0 x72 - 15 x73
   + 0 x74 + 0 x75 + 0 x76 - 38 x77 + 0 x78 + 0 x79 + [ 18 x0 ^2
   + 22 x0 * x1 + 30 x0 * x2 + 36 x0 * x3 - 2 x0 * x6 - 78 x0 * x7
   - 12 x0 * x8 + 94 x0 * x9 - 2 x0 * x11 - 42 x0 * x13 - 14 x0 * x15
   + 40 x0 * x18 + 26 x0 * x19 + 14 x0 * x20 - 12 x0 * x21 - 80 x0 * x22
   + 10 x0 * x23 - 88 x0 * x27 + 2 x0 * x28 - 88 x0 * x30 + 66 x0 * x31
   + 50 x0 * x32 - 82 x0 * x37 + 40 x0 * x39 - 64 x0 * x42 + 40 x0 * x43
   + 90 x0 * x50 + 44 x0 * x51 + 60 x0 * x52 + 84 x0 * x55 - 26 x0 * x56
   + 54 x0 * x57 + 8 x0 * x58 + 66 x0 * x59 + 50 x0 * x61 - 26 x0 * x62
   + 86 x0 * x64 + 50 x0 * x65 + 14 x0 * x66 + 14 x0 * x69 + 24 x0 * x71
   + 38 x0 * x72 - 78 x0 * x73 - 42 x1 * x3 + 24 x1 * x4 + 76 x1 * x5
   - 88 x1 * x6 - 24 x1 * x8 - 74 x1 * x10 + 58 x1 * x11 - 62 x1 * x13
   - 26 x1 * x14 - 80 x1 * x18 + 58 x1 * x20 + 42 x1 * x24 - 24 x1 * x27
   - 4 x1 * x29 - 26 x1 * x31 + 18 x1 * x36 - 42 x1 * x37 + 98 x1 * x38
   - 46 x1 * x46 - 34 x1 * x47 + 44 x1 * x52 + 16 x1 * x57 + 56 x1 * x59
   + 70 x1 * x60 - 24 x1 * x61 - 74 x1 * x63 + 12 x1 * x64 - 46 x1 * x67
   - 98 x1 * x68 + 70 x1 * x70 + 24 x1 * x71 + 84 x1 * x72 - 8 x1 * x74
   + 36 x1 * x75 - 10 x1 * x76 + 2 x1 * x79 - 27 x2 ^2 + 78 x2 * x4
   + 48 x2 * x5 + 78 x2 * x6 - 16 x2 * x12 - 82 x2 * x13 + 86 x2 * x14
   - 62 x2 * x18 - 30 x2 * x22 + 74 x2 * x25 - 36 x2 * x26 - 54 x2 * x28
   + 54 x2 * x30 + 78 x2 * x32 - 92 x2 * x34 + 58 x2 * x35 + 72 x2 * x37
   + 66 x2 * x40 + 8 x2 * x41 - 44 x2 * x45 + 98 x2 * x51 + 44 x2 * x54
   + 20 x2 * x56 - 48 x2 * x57 + 22 x2 * x58 + 46 x2 * x59 + 26 x2 * x60
   + 10 x2 * x61 - 52 x2 * x62 + 20 x2 * x64 + 16 x2 * x66 + 32 x2 * x68
   - 22 x2 * x74 - 24 x2 * x76 - 24 x2 * x79 - 60 x3 * x4 - 60 x3 * x5
   - 76 x3 * x6 - 36 x3 * x7 - 78 x3 * x8 - 6 x3 * x10 + 32 x3 * x13
   + 84 x3 * x18 - 48 x3 * x19 + 8 x3 * x21 + 6 x3 * x22 - 34 x3 * x23
   - 76 x3 * x25 + 82 x3 * x28 + 40 x3 * x29 - 32 x3 * x31 - 2 x3 * x34
   + 88 x3 * x36 + 94 x3 * x37 + 4 x3 * x39 - 80 x3 * x40 - 42 x3 * x41
   + 4 x3 * x42 - 42 x3 * x44 - 14 x3 * x45 - 60 x3 * x46 + 94 x3 * x52
   + 10 x3 * x56 + 50 x3 * x57 + 74 x3 * x58 + 78 x3 * x60 - 40 x3 * x61
   - 74 x3 * x63 - 28 x3 * x64 + 16 x3 * x65 - 34 x3 * x66 + 22 x3 * x69
   + 30 x3 * x71 - 86 x3 * x72 - 68 x3 * x73 + 80 x3 * x75 - 64 x3 * x78
   - 44 x3 * x79 - 10 x4 ^2 + 30 x4 * x5 + 52 x4 * x6 - 28 x4 * x7
   + 80 x4 * x8 + 70 x4 * x9 - 36 x4 * x10 + 74 x4 * x11 + 76 x4 * x14
   + 86 x4 * x15 + 48 x4 * x19 + 36 x4 * x20 - 56 x4 * x21 - 64 x4 * x22
   + 46 x4 * x23 - 38 x4 * x24 + 18 x4 * x25 - 60 x4 * x28 + 22 x4 * x29
   + 28 x4 * x30 + 8 x4 * x31 - 82 x4 * x34 - 72 x4 * x36 + 68 x4 * x38
   - 72 x4 * x39 - 58 x4 * x40 + 46 x4 * x44 - 80 x4 * x45 - 88 x4 * x46
   + 80 x4 * x47 - 78 x4 * x48 - 48 x4 * x52 - 90 x4 * x53 + 64 x4 * x54
   - 14 x4 * x56 - 60 x4 * x57 + 32 x4 * x61 + 14 x4 * x62 + 64 x4 * x64
   + 54 x4 * x65 + 12 x4 * x66 - 44 x4 * x67 - 98 x4 * x69 + 70 x4 * x70
   + 84 x4 * x71 - 46 x4 * x72 + 82 x4 * x76 - 52 x5 * x6 + 66 x5 * x9
   - 8 x5 * x10 - 88 x5 * x13 + 48 x5 * x15 - 84 x5 * x18 - 74 x5 * x20
   - 36 x5 * x21 - 2 x5 * x22 + 62 x5 * x23 + 96 x5 * x25 + 62 x5 * x26
   + 22 x5 * x28 - 68 x5 * x32 - 8 x5 * x33 - 26 x5 * x37 + 16 x5 * x39
   - 78 x5 * x42 - 76 x5 * x43 - 94 x5 * x44 - 46 x5 * x45 - 90 x5 * x46
   - 28 x5 * x49 - 60 x5 * x53 - 76 x5 * x54 - 68 x5 * x57 + 14 x5 * x59
   + 32 x5 * x63 - 24 x5 * x64 - 74 x5 * x75 + 72 x6 * x7 + 58 x6 * x10
   + 88 x6 * x13 - 32 x6 * x16 + 32 x6 * x17 + 4 x6 * x19 - 56 x6 * x20
   - 76 x6 * x21 - 52 x6 * x22 - 70 x6 * x23 + 84 x6 * x24 + 88 x6 * x27
   - 70 x6 * x30 + 88 x6 * x32 + 22 x6 * x34 - 8 x6 * x35 + 34 x6 * x36
   + 86 x6 * x37 + 14 x6 * x41 - 6 x6 * x42 - 72 x6 * x43 - 54 x6 * x44
   - 10 x6 * x52 - 44 x6 * x53 - 52 x6 * x55 - 38 x6 * x57 + 60 x6 * x59
   - 36 x6 * x60 + 92 x6 * x61 + 38 x6 * x62 - 94 x6 * x64 + 8 x6 * x65
   - 74 x6 * x68 + 34 x6 * x70 - 88 x6 * x71 + 66 x6 * x73 - 84 x6 * x76
   - 24 x6 * x77 - 86 x6 * x78 - 14 x7 ^2 + 86 x7 * x8 + 84 x7 * x9
   - 18 x7 * x12 + 62 x7 * x14 + 52 x7 * x15 - 40 x7 * x16 + 66 x7 * x18
   - 86 x7 * x19 - 92 x7 * x24 - 98 x7 * x25 + 36 x7 * x27 - 92 x7 * x31
   + 16 x7 * x32 + 28 x7 * x33 + 68 x7 * x36 + 10 x7 * x38 - 6 x7 * x39
   + 6 x7 * x41 + 42 x7 * x42 - 66 x7 * x43 + 60 x7 * x44 + 80 x7 * x45
   - 8 x7 * x46 + 74 x7 * x47 - 14 x7 * x48 - 96 x7 * x53 + 76 x7 * x56
   - 22 x7 * x58 - 86 x7 * x59 + 50 x7 * x62 - 52 x7 * x64 + 4 x7 * x66
   + 30 x7 * x68 - 32 x7 * x72 + 38 x7 * x73 - 40 x7 * x74 + 68 x7 * x75
   + 10 x8 ^2 - 58 x8 * x10 - 36 x8 * x13 - 6 x8 * x15 - 78 x8 * x16
   - 26 x8 * x18 - 12 x8 * x19 - 66 x8 * x20 + 96 x8 * x21 - 84 x8 * x22
   - 64 x8 * x25 - 94 x8 * x31 - 36 x8 * x33 + 24 x8 * x34 + 66 x8 * x41
   - 12 x8 * x43 + 66 x8 * x45 - 14 x8 * x47 + 28 x8 * x50 + 42 x8 * x51
   + 44 x8 * x53 - 84 x8 * x56 + 32 x8 * x57 - 62 x8 * x60 - 10 x8 * x62
   + 72 x8 * x63 - 96 x8 * x65 - 86 x8 * x72 + 70 x8 * x73 + 22 x8 * x76
   - 88 x8 * x77 + 30 x8 * x78 - 33 x9 ^2 + 88 x9 * x10 + 38 x9 * x13
   + 26 x9 * x15 + 72 x9 * x17 - 78 x9 * x18 + 32 x9 * x19 + 18 x9 * x20
   + 34 x9 * x22 + 14 x9 * x23 + 96 x9 * x24 + 14 x9 * x26 + 30 x9 * x29
   + 6 x9 * x30 + 38 x9 * x35 - 58 x9 * x36 + 10 x9 * x38 + 4 x9 * x41
   - 14 x9 * x50 + 68 x9 * x51 + 68 x9 * x54 - 24 x9 * x58 - 32 x9 * x59
   + 40 x9 * x60 - 68 x9 * x61 + 96 x9 * x63 - 78 x9 * x64 - 22 x9 * x65
   - 52 x9 * x66 + 56 x9 * x68 + 52 x9 * x69 + 58 x9 * x70 - 60 x9 * x73
   + 28 x9 * x74 - 60 x9 * x75 - 10 x9 * x77 + 49 x10 ^2 + 4 x10 * x13
   + 60 x10 * x14 + 20 x10 * x16 + 12 x10 * x20 + 70 x10 * x21
   + 60 x10 * x22 - 92 x10 * x23 + 36 x10 * x24 + 88 x10 * x27
   + 64 x10 * x28 + 80 x10 * x30 + 32 x10 * x33 + 32 x10 * x35
   + 42 x10 * x36 + 38 x10 * x41 - 68 x10 * x44 - 30 x10 * x50
   - 12 x10 * x51 - 6 x10 * x52 + 8 x10 * x54 + 88 x10 * x56 + 40 x10 * x60
   + 86 x10 * x63 - 84 x10 * x65 + 94 x10 * x66 + 34 x10 * x67
   - 76 x10 * x68 - 84 x10 * x69 - 20 x10 * x73 - 78 x10 * x74
   - 2 x10 * x78 - 16 x10 * x79 - 32 x11 ^2 + 34 x11 * x13 - 14 x11 * x14
   + 58 x11 * x16 - 78 x11 * x17 + 60 x11 * x18 - 90 x11 * x20
   + 6 x11 * x23 - 74 x11 * x24 + 4 x11 * x25 + 6 x11 * x26 + 60 x11 * x28
   + 22 x11 * x29 - 4 x11 * x30 - 66 x11 * x31 - 44 x11 * x32
   + 32 x11 * x33 - 82 x11 * x38 + 28 x11 * x41 - 88 x11 * x44
   - 74 x11 * x47 + 88 x11 * x51 + 72 x11 * x53 + 50 x11 * x54
   - 8 x11 * x57 - 40 x11 * x58 + 90 x11 * x59 - 70 x11 * x61
   + 56 x11 * x63 + 94 x11 * x64 - 68 x11 * x66 - 20 x11 * x67
   + 10 x11 * x68 + 22 x11 * x71 + 76 x11 * x72 + 94 x11 * x75
   + 98 x11 * x77 + 76 x12 * x13 + 72 x12 * x16 - 72 x12 * x20
   - 98 x12 * x22 + 8 x12 * x24 - 34 x12 * x26 - 62 x12 * x29
   - 42 x12 * x32 - 2 x12 * x36 - 88 x12 * x38 + 86 x12 * x39
   + 88 x12 * x40 + 82 x12 * x41 - 34 x12 * x43 + 34 x12 * x45
   - 98 x12 * x49 + 74 x12 * x50 + 76 x12 * x51 - 30 x12 * x52
   + 20 x12 * x55 - 4 x12 * x56 + 66 x12 * x57 + 42 x12 * x58 + 2 x12 * x62
   - 76 x12 * x68 - 10 x12 * x69 + 30 x12 * x70 - 38 x12 * x71
   - 8 x12 * x72 - 74 x12 * x75 + 74 x12 * x76 + 40 x12 * x78
   - 32 x12 * x79 - 20 x13 ^2 - 54 x13 * x14 - 56 x13 * x16 + 96 x13 * x17
   + 2 x13 * x20 + 54 x13 * x26 - 98 x13 * x28 + 34 x13 * x30
   + 90 x13 * x31 - 44 x13 * x32 + 38 x13 * x35 - 16 x13 * x37
   + 90 x13 * x42 + 52 x13 * x43 + 82 x13 * x47 + 76 x13 * x48
   - 34 x13 * x51 + 14 x13 * x53 + 40 x13 * x59 - 44 x13 * x60
   + 2 x13 * x61 + 82 x13 * x63 + 2 x13 * x68 + 6 x13 * x69 + 62 x13 * x71
   - 8 x13 * x72 + 32 x13 * x73 - 46 x13 * x74 - 34 x13 * x78
   + 38 x13 * x79 - 9 x14 ^2 + 20 x14 * x15 - 4 x14 * x17 - 26 x14 * x19
   - 68 x14 * x20 + 58 x14 * x22 + 4 x14 * x25 - 78 x14 * x26
   - 66 x14 * x29 - 38 x14 * x31 + 70 x14 * x34 - 76 x14 * x35
   - 68 x14 * x36 - 28 x14 * x37 + 36 x14 * x39 + 58 x14 * x42
   - 72 x14 * x44 - 12 x14 * x47 + 20 x14 * x48 + 58 x14 * x49
   - 64 x14 * x50 - 24 x14 * x51 + 58 x14 * x52 + 22 x14 * x54
   + 86 x14 * x55 + 80 x14 * x56 - 68 x14 * x57 + 80 x14 * x58
   + 74 x14 * x61 - 32 x14 * x63 + 56 x14 * x64 - 66 x14 * x67
   - 46 x14 * x68 + 6 x14 * x70 - 20 x14 * x71 - 48 x14 * x74
   - 28 x14 * x75 - 45 x15 ^2 + 92 x15 * x18 - 62 x15 * x19 + 18 x15 * x20
   - 58 x15 * x21 - 70 x15 * x25 - 72 x15 * x26 - 46 x15 * x28
   + 32 x15 * x30 - 58 x15 * x31 + 56 x15 * x32 - 80 x15 * x34
   + 64 x15 * x35 + 76 x15 * x36 - 4 x15 * x38 - 78 x15 * x43
   - 42 x15 * x44 - 96 x15 * x47 + 54 x15 * x48 + 44 x15 * x50
   + 98 x15 * x52 - 2 x15 * x53 - 46 x15 * x55 - 16 x15 * x57
   - 36 x15 * x60 + 46 x15 * x61 - 28 x15 * x63 - 4 x15 * x64
   - 68 x15 * x65 + 98 x15 * x67 + 10 x15 * x71 + 70 x16 * x17
   - 62 x16 * x18 - 62 x16 * x22 + 16 x16 * x23 - 74 x16 * x28
   + 80 x16 * x29 + 62 x16 * x34 + 88 x16 * x35 + 46 x16 * x37
   - 50 x16 * x41 - 92 x16 * x45 - 18 x16 * x52 - 54 x16 * x55
   - 16 x16 * x58 + 48 x16 * x61 - 50 x16 * x62 + 36 x16 * x63
   + 46 x16 * x67 - 36 x16 * x70 + 78 x16 * x71 - 48 x16 * x72
   - 82 x16 * x76 - 24 x16 * x79 - 30 x17 ^2 - 66 x17 * x18 - 12 x17 * x19
   - 94 x17 * x29 - 40 x17 * x32 - 64 x17 * x33 + 84 x17 * x36
   + 14 x17 * x40 - 18 x17 * x41 + 60 x17 * x45 - 8 x17 * x47
   + 38 x17 * x50 + 30 x17 * x52 + 64 x17 * x54 - 24 x17 * x56
   + 84 x17 * x57 + 32 x17 * x60 + 66 x17 * x62 + 20 x17 * x63
   + 20 x17 * x64 - 10 x17 * x66 - 28 x17 * x68 + 92 x17 * x71
   + 78 x17 * x73 + 12 x17 * x74 - 22 x17 * x76 - 98 x17 * x77
   + 26 x17 * x78 + 80 x17 * x79 - 31 x18 ^2 + 98 x18 * x23 + 20 x18 * x24
   - 88 x18 * x26 - 20 x18 * x31 + 54 x18 * x33 + 34 x18 * x34
   + 60 x18 * x36 + 44 x18 * x40 + 54 x18 * x42 - 48 x18 * x43
   + 50 x18 * x44 + 40 x18 * x45 - 38 x18 * x46 + 72 x18 * x47
   + 92 x18 * x58 + 52 x18 * x59 - 24 x18 * x62 + 94 x18 * x64
   + 8 x18 * x68 + 38 x18 * x71 - 86 x18 * x72 + 46 x18 * x73 + 24 x19 ^2
   - 2 x19 * x20 + 96 x19 * x21 + 30 x19 * x23 + 36 x19 * x26
   + 34 x19 * x33 + 62 x19 * x36 + 72 x19 * x37 + 96 x19 * x39
   - 52 x19 * x41 + 82 x19 * x47 + 12 x19 * x49 + 50 x19 * x50
   + 50 x19 * x51 + 80 x19 * x58 - 20 x19 * x59 + 30 x19 * x61
   - 56 x19 * x63 - 44 x19 * x66 + 60 x19 * x67 - 12 x19 * x77
   + 38 x19 * x78 + 42 x19 * x79 - 80 x20 * x21 - 66 x20 * x25
   + 30 x20 * x26 + 80 x20 * x27 + 6 x20 * x29 - 22 x20 * x31
   + 10 x20 * x35 + 76 x20 * x36 - 32 x20 * x41 + 56 x20 * x42
   - 14 x20 * x46 - 46 x20 * x47 + 68 x20 * x48 - 58 x20 * x49
   - 70 x20 * x50 - 22 x20 * x56 - 58 x20 * x57 + 52 x20 * x59
   + 22 x20 * x60 - 78 x20 * x65 - 28 x20 * x66 + 30 x20 * x68
   - 96 x20 * x70 + 36 x20 * x71 - 30 x20 * x72 - 90 x20 * x74
   - 18 x20 * x75 + 16 x20 * x76 - 24 x20 * x79 + 28 x21 * x22
   - 26 x21 * x23 + 26 x21 * x24 - 24 x21 * x30 - 86 x21 * x33
   - 2 x21 * x34 - 28 x21 * x35 + 60 x21 * x37 + 42 x21 * x38
   - 18 x21 * x39 - 72 x21 * x41 + 94 x21 * x43 + 38 x21 * x45
   - 28 x21 * x46 + 86 x21 * x48 - 14 x21 * x51 - 90 x21 * x52
   - 98 x21 * x53 - 32 x21 * x54 - 32 x21 * x55 + 12 x21 * x57
   - 14 x21 * x59 + 90 x21 * x60 + 92 x21 * x62 - 70 x21 * x65
   + 96 x21 * x68 - 10 x21 * x71 - 68 x21 * x72 - 20 x21 * x76
   - 14 x21 * x77 - 88 x22 * x23 - 58 x22 * x24 - 62 x22 * x26
   - 68 x22 * x27 - 82 x22 * x28 + 52 x22 * x29 - 52 x22 * x30
   + 2 x22 * x32 + 86 x22 * x36 + 62 x22 * x38 - 96 x22 * x40
   + 34 x22 * x43 + 92 x22 * x48 + 36 x22 * x49 - 16 x22 * x53
   + 94 x22 * x55 - 40 x22 * x56 + 36 x22 * x57 - 14 x22 * x58
   + 76 x22 * x61 - 64 x22 * x65 - 88 x22 * x68 + 18 x22 * x72
   + 28 x22 * x73 + 68 x22 * x75 + 44 x22 * x76 + 76 x22 * x77
   - 42 x22 * x78 - 18 x23 ^2 + 72 x23 * x24 + 72 x23 * x25 - 40 x23 * x27
   - 14 x23 * x31 - 98 x23 * x34 - 78 x23 * x35 + 50 x23 * x37
   - 86 x23 * x38 - 4 x23 * x41 + 44 x23 * x43 + 20 x23 * x44
   - 24 x23 * x46 - 14 x23 * x48 - 46 x23 * x49 - 28 x23 * x52
   + 14 x23 * x54 - 34 x23 * x56 - 24 x23 * x57 - 42 x23 * x59
   - 26 x23 * x63 + 76 x23 * x64 + 18 x23 * x67 + 68 x23 * x68
   + 4 x23 * x72 - 78 x23 * x74 + 8 x23 * x78 - 64 x24 * x28 + 66 x24 * x30
   - 76 x24 * x33 + 16 x24 * x34 + 2 x24 * x36 - 78 x24 * x42
   + 64 x24 * x45 - 12 x24 * x46 + 84 x24 * x49 + 46 x24 * x52
   + 58 x24 * x58 - 92 x24 * x60 - 86 x24 * x64 + 28 x24 * x66
   + 28 x24 * x67 - 68 x24 * x73 - 22 x24 * x75 - 90 x24 * x77
   - 72 x24 * x78 + 10 x25 ^2 + 96 x25 * x27 + 56 x25 * x28 + 20 x25 * x31
   - 30 x25 * x33 + 20 x25 * x34 + 14 x25 * x35 + 68 x25 * x38
   - 42 x25 * x39 - 70 x25 * x41 + 50 x25 * x42 - 44 x25 * x44
   - 36 x25 * x45 + 70 x25 * x46 - 8 x25 * x50 + 6 x25 * x53 + 16 x25 * x55
   - 86 x25 * x56 - 36 x25 * x57 - 40 x25 * x59 + 80 x25 * x60
   + 44 x25 * x64 - 52 x25 * x65 - 54 x25 * x66 + 50 x25 * x67
   + 66 x25 * x68 + 56 x25 * x69 - 92 x25 * x70 - 12 x25 * x71
   + 78 x25 * x73 - 28 x25 * x74 - 76 x25 * x75 + 50 x25 * x77
   + 4 x25 * x79 - 8 x26 * x27 + 60 x26 * x31 - 72 x26 * x32 - 78 x26 * x34
   + 6 x26 * x35 + 94 x26 * x37 + 46 x26 * x38 + 94 x26 * x39
   - 32 x26 * x43 - 76 x26 * x44 + 74 x26 * x49 - 26 x26 * x50
   + 26 x26 * x51 + 26 x26 * x52 - 82 x26 * x55 + 84 x26 * x58
   - 20 x26 * x60 + 14 x26 * x62 + 94 x26 * x63 + 70 x26 * x65
   + 2 x26 * x66 - 28 x26 * x67 + 8 x26 * x68 - 82 x26 * x69 - 38 x26 * x71
   - 56 x26 * x72 + 44 x26 * x76 + 62 x27 * x28 - 62 x27 * x30
   + 22 x27 * x31 - 20 x27 * x37 + 82 x27 * x38 + 60 x27 * x39
   + 8 x27 * x40 + 2 x27 * x41 + 20 x27 * x43 - 76 x27 * x49 + 78 x27 * x50
   - 50 x27 * x53 + 64 x27 * x54 - 60 x27 * x57 - 68 x27 * x58
   - 48 x27 * x59 + 98 x27 * x60 + 42 x27 * x64 + 20 x27 * x65
   + 46 x27 * x67 + 56 x27 * x68 + 24 x27 * x71 + 88 x27 * x72
   - 94 x27 * x74 - 50 x28 * x30 + 56 x28 * x31 + 4 x28 * x38
   - 64 x28 * x40 + 72 x28 * x42 - 10 x28 * x45 - 40 x28 * x46
   + 96 x28 * x47 + 36 x28 * x49 - 22 x28 * x52 - 46 x28 * x56
   + 98 x28 * x57 + 48 x28 * x58 - 42 x28 * x60 + 84 x28 * x61
   - 84 x28 * x62 + 2 x28 * x66 - 30 x28 * x67 + 88 x28 * x70
   - 32 x28 * x74 + 6 x28 * x75 - 26 x28 * x76 + 90 x28 * x78
   - 90 x28 * x79 - 37 x29 ^2 + 24 x29 * x31 - 84 x29 * x32 + 96 x29 * x33
   + 62 x29 * x35 + 58 x29 * x40 - 58 x29 * x43 + 46 x29 * x44
   - 40 x29 * x45 + 64 x29 * x46 - 48 x29 * x47 + 46 x29 * x53
   - 78 x29 * x54 - 36 x29 * x55 - 14 x29 * x59 + 30 x29 * x60
   + 56 x29 * x62 + 40 x29 * x63 - 78 x29 * x64 + 56 x29 * x68
   - 60 x29 * x70 + 32 x29 * x74 - 4 x30 * x31 + 94 x30 * x33 + 6 x30 * x34
   + 2 x30 * x38 - 50 x30 * x40 - 4 x30 * x43 - 8 x30 * x44 + 42 x30 * x46
   - 72 x30 * x48 - 86 x30 * x50 + 96 x30 * x51 - 82 x30 * x52
   + 88 x30 * x53 + 52 x30 * x55 + 56 x30 * x56 - 46 x30 * x60
   - 86 x30 * x63 + 52 x30 * x64 + 18 x30 * x73 + 96 x30 * x78 + 25 x31 ^2
   + 62 x31 * x32 - 52 x31 * x33 - 14 x31 * x35 + 18 x31 * x38
   + 50 x31 * x39 + 92 x31 * x40 + 36 x31 * x41 + 38 x31 * x42
   - 62 x31 * x43 - 58 x31 * x44 - 76 x31 * x45 + 78 x31 * x46
   + 24 x31 * x47 + 42 x31 * x48 - 58 x31 * x49 - 86 x31 * x51
   - 26 x31 * x52 + 40 x31 * x57 - 52 x31 * x58 + 26 x31 * x60
   - 50 x31 * x61 - 22 x31 * x63 + 84 x31 * x64 + 32 x31 * x66
   - 28 x31 * x70 - 60 x31 * x71 + 56 x31 * x72 + 70 x31 * x75
   - 20 x31 * x76 + 16 x31 * x77 - 74 x32 * x33 - 74 x32 * x34
   - 74 x32 * x35 - 16 x32 * x38 + 2 x32 * x41 + 74 x32 * x42
   - 48 x32 * x47 + 30 x32 * x48 - 96 x32 * x49 + 82 x32 * x54
   + 96 x32 * x56 + 98 x32 * x57 - 6 x32 * x58 - 26 x32 * x59
   - 20 x32 * x61 + 18 x32 * x63 - 18 x32 * x64 + 56 x32 * x69
   - 80 x32 * x72 - 40 x32 * x75 + 70 x32 * x76 - 36 x32 * x77
   + 36 x32 * x79 - 7 x33 ^2 + 88 x33 * x35 + 66 x33 * x39 + 46 x33 * x40
   + 52 x33 * x41 - 86 x33 * x44 + 56 x33 * x48 - 44 x33 * x50
   - 36 x33 * x56 - 18 x33 * x59 - 74 x33 * x61 + 90 x33 * x66
   + 20 x33 * x68 + 48 x33 * x69 - 94 x33 * x73 - 30 x33 * x78
   + 54 x33 * x79 + 26 x34 * x35 - 40 x34 * x37 - 10 x34 * x40
   - 64 x34 * x41 - 4 x34 * x43 - 78 x34 * x45 - 24 x34 * x49
   + 52 x34 * x50 - 74 x34 * x51 + 16 x34 * x52 - 30 x34 * x53
   + 98 x34 * x54 - 88 x34 * x56 - 86 x34 * x57 + 2 x34 * x58
   - 92 x34 * x62 + 56 x34 * x64 + 78 x34 * x65 + 36 x34 * x67
   + 74 x34 * x69 - 82 x34 * x70 + 56 x34 * x72 - 86 x34 * x73
   + 16 x34 * x74 + 8 x34 * x75 + 33 x35 ^2 - 46 x35 * x38 - 78 x35 * x43
   - 38 x35 * x44 - 12 x35 * x46 - 24 x35 * x48 - 86 x35 * x49
   + 38 x35 * x52 + 26 x35 * x53 - 32 x35 * x57 + 14 x35 * x58
   - 46 x35 * x60 - 14 x35 * x64 + 22 x35 * x66 + 72 x35 * x67
   + 70 x35 * x73 - 6 x35 * x74 - 6 x35 * x76 - 64 x35 * x79 - 34 x36 * x37
   - 28 x36 * x40 + 58 x36 * x41 + 62 x36 * x43 + 46 x36 * x45
   + 4 x36 * x46 - 14 x36 * x47 + 74 x36 * x49 - 92 x36 * x53
   + 90 x36 * x54 + 66 x36 * x55 + 16 x36 * x57 - 44 x36 * x60
   - 10 x36 * x61 - 60 x36 * x62 - 16 x36 * x68 + 10 x36 * x69
   + 78 x36 * x70 - 54 x36 * x71 - 70 x36 * x72 - 36 x36 * x73
   - 58 x36 * x75 + 84 x36 * x76 + 90 x36 * x77 - 10 x36 * x78
   + 26 x36 * x79 + 42 x37 * x39 + 78 x37 * x41 - 48 x37 * x42
   - 76 x37 * x44 + 88 x37 * x47 - 18 x37 * x49 + 58 x37 * x53
   - 74 x37 * x55 + 64 x37 * x57 - 52 x37 * x59 - 42 x37 * x60
   + 36 x37 * x63 + 74 x37 * x65 - 26 x37 * x66 + 60 x37 * x67
   + 98 x37 * x74 + 22 x37 * x76 - 66 x37 * x77 - 6 x37 * x78
   + 34 x38 * x39 - 40 x38 * x41 - 46 x38 * x47 + 98 x38 * x48
   + 66 x38 * x50 + 90 x38 * x51 + 58 x38 * x53 + 26 x38 * x55
   + 36 x38 * x57 - 50 x38 * x58 - 96 x38 * x60 + 26 x38 * x62
   + 84 x38 * x63 + 18 x38 * x67 - 76 x38 * x68 - 78 x38 * x69
   + 10 x38 * x72 - 64 x38 * x73 - 82 x38 * x78 - 26 x39 ^2 - 42 x39 * x43
   + 24 x39 * x44 - 2 x39 * x45 + 94 x39 * x46 + 10 x39 * x48
   - 92 x39 * x51 + 74 x39 * x52 - 90 x39 * x53 - 4 x39 * x54
   + 88 x39 * x57 - 66 x39 * x60 - 62 x39 * x62 - 72 x39 * x63
   - 84 x39 * x66 - 66 x39 * x68 + 40 x39 * x69 + 78 x39 * x73
   + 48 x39 * x74 - 78 x39 * x77 - 39 x40 ^2 - 70 x40 * x41 + 12 x40 * x43
   - 30 x40 * x46 + 64 x40 * x48 - 78 x40 * x49 - 78 x40 * x50
   - 16 x40 * x51 - 22 x40 * x52 - 2 x40 * x53 + 46 x40 * x57 + 4 x40 * x61
   - 36 x40 * x62 - 42 x40 * x65 + 60 x40 * x66 + 86 x40 * x67
   + 30 x40 * x73 + 26 x40 * x77 - 60 x40 * x79 + 2 x41 ^2 + 50 x41 * x42
   + 28 x41 * x43 - 12 x41 * x44 + 70 x41 * x49 + 40 x41 * x50
   + 94 x41 * x51 - 70 x41 * x52 - 34 x41 * x53 + 20 x41 * x60
   + 62 x41 * x64 + 12 x41 * x66 + 42 x41 * x71 - 28 x41 * x72
   + 86 x41 * x75 - 20 x41 * x77 + 88 x41 * x79 + 15 x42 ^2 - 48 x42 * x44
   + 70 x42 * x45 + 12 x42 * x46 - 46 x42 * x49 + 28 x42 * x51
   - 52 x42 * x52 - 32 x42 * x55 + 60 x42 * x56 + 82 x42 * x58
   + 86 x42 * x59 - 26 x42 * x61 + 76 x42 * x62 - 18 x42 * x66
   + 74 x42 * x67 + 76 x42 * x70 + 16 x42 * x72 + 98 x42 * x73
   + 88 x42 * x74 + 30 x42 * x75 - 62 x42 * x76 + 49 x43 ^2 + 20 x43 * x44
   + 80 x43 * x47 + 56 x43 * x50 + 24 x43 * x53 - 46 x43 * x55
   + 98 x43 * x58 - 38 x43 * x59 + 82 x43 * x63 - 92 x43 * x65
   + 58 x43 * x67 + 16 x43 * x70 + 12 x43 * x71 - 16 x43 * x74
   - 90 x43 * x76 + 16 x43 * x77 - 4 x43 * x78 - 90 x43 * x79 + 11 x44 ^2
   + 16 x44 * x47 + 72 x44 * x48 + 80 x44 * x49 - 60 x44 * x51
   - 16 x44 * x57 - 10 x44 * x58 - 2 x44 * x59 + 2 x44 * x61 - 54 x44 * x63
   - 10 x44 * x64 + 64 x44 * x66 + 86 x44 * x70 + 16 x44 * x71
   - 52 x44 * x72 - 10 x44 * x74 - 6 x44 * x75 + 66 x44 * x77
   + 86 x45 * x49 + 12 x45 * x54 + 52 x45 * x58 - 88 x45 * x60
   - 82 x45 * x61 - 92 x45 * x65 - 12 x45 * x66 - 26 x45 * x70
   - 34 x45 * x72 - 44 x45 * x74 + 88 x45 * x75 - 64 x45 * x77
   + 70 x45 * x78 + 40 x45 * x79 - 78 x46 * x47 + 78 x46 * x49
   - 92 x46 * x50 - 48 x46 * x52 + 18 x46 * x54 + 48 x46 * x55
   - 6 x46 * x58 - 30 x46 * x60 + 16 x46 * x62 - 52 x46 * x63
   + 14 x46 * x64 + 18 x46 * x65 + 4 x46 * x77 - 44 x46 * x78
   - 98 x47 * x48 + 78 x47 * x52 - 82 x47 * x53 - 88 x47 * x54
   + 82 x47 * x55 - 52 x47 * x60 + 46 x47 * x62 + 12 x47 * x63
   - 28 x47 * x64 - 68 x47 * x65 + 26 x47 * x66 - 68 x47 * x69
   - 86 x47 * x75 + 88 x47 * x76 + 23 x48 ^2 + 4 x48 * x50 + 30 x48 * x51
   - 62 x48 * x52 + 62 x48 * x53 + 86 x48 * x57 - 76 x48 * x58
   - 62 x48 * x61 - 6 x48 * x62 + 90 x48 * x66 + 64 x48 * x68
   - 32 x48 * x69 + 86 x48 * x70 + 98 x48 * x71 - 48 x48 * x75
   - 46 x48 * x77 - 4 x48 * x78 - 24 x49 ^2 + 34 x49 * x50 + 82 x49 * x51
   - 16 x49 * x53 - 12 x49 * x54 - 60 x49 * x56 - 12 x49 * x57
   + 54 x49 * x61 + 72 x49 * x64 + 10 x49 * x65 + 92 x49 * x66
   + 90 x49 * x67 - 94 x49 * x68 + 94 x49 * x71 + 76 x49 * x73
   + 38 x49 * x74 + 12 x49 * x76 + 60 x49 * x77 - 8 x49 * x78 + 28 x50 ^2
   - 54 x50 * x51 + 50 x50 * x52 + 18 x50 * x53 - 24 x50 * x58
   + 64 x50 * x62 + 26 x50 * x65 - 64 x50 * x68 + 56 x50 * x69
   - 66 x50 * x70 + 20 x50 * x71 + 24 x50 * x74 - 64 x50 * x77
   + 14 x50 * x78 - 38 x51 * x52 + 12 x51 * x54 - 66 x51 * x56
   + 56 x51 * x59 + 80 x51 * x60 - 52 x51 * x61 - 82 x51 * x62
   - 32 x51 * x63 - 14 x51 * x64 - 64 x51 * x67 - 64 x51 * x68
   + 2 x51 * x71 + 26 x51 * x76 + 64 x51 * x78 - 10 x52 ^2 + 34 x52 * x53
   + 56 x52 * x54 + 26 x52 * x57 - 62 x52 * x58 + 90 x52 * x59
   + 6 x52 * x60 + 76 x52 * x63 + 64 x52 * x64 - 84 x52 * x65
   - 22 x52 * x66 + 82 x52 * x67 - 96 x52 * x68 + 80 x52 * x71
   + 80 x52 * x75 - 18 x52 * x77 + 66 x52 * x78 + 16 x53 * x56
   + 82 x53 * x62 - 38 x53 * x65 + 40 x53 * x71 - 32 x53 * x76
   + 92 x53 * x78 - 96 x53 * x79 - 80 x54 * x56 - 50 x54 * x60
   - 58 x54 * x66 - 88 x54 * x68 - 22 x54 * x70 + 2 x54 * x71
   - 42 x54 * x74 + 24 x54 * x77 - 86 x54 * x78 + 96 x54 * x79 - 9 x55 ^2
   + 50 x55 * x56 + 76 x55 * x57 - 76 x55 * x60 + 42 x55 * x61
   - 16 x55 * x62 + 86 x55 * x64 - 44 x55 * x65 - 88 x55 * x67
   - 42 x55 * x71 + 82 x55 * x73 + 84 x55 * x74 - 98 x55 * x78
   + 18 x55 * x79 + 10 x56 * x57 - 38 x56 * x58 - 98 x56 * x61
   + 4 x56 * x62 - 10 x56 * x63 - 86 x56 * x64 - 76 x56 * x66
   + 46 x56 * x70 + 68 x56 * x73 + 70 x56 * x75 + 41 x57 ^2 + 24 x57 * x60
   + 18 x57 * x68 - 28 x57 * x70 - 80 x57 * x72 - 4 x57 * x74
   - 18 x57 * x76 - 82 x57 * x79 + 46 x58 ^2 - 4 x58 * x59 + 42 x58 * x62
   + 34 x58 * x64 + 72 x58 * x66 + 68 x58 * x68 - 86 x58 * x69
   + 30 x58 * x72 + 24 x58 * x73 + 32 x58 * x74 - 86 x58 * x75
   - 56 x59 * x60 - 86 x59 * x61 - 58 x59 * x62 - 42 x59 * x64
   + 78 x59 * x69 + 14 x59 * x70 + 6 x59 * x71 - 56 x59 * x73
   - 86 x59 * x74 - 88 x59 * x75 + 72 x59 * x76 - 46 x59 * x77
   + 68 x59 * x78 + 70 x60 * x64 + 46 x60 * x65 + 28 x60 * x66
   + 86 x60 * x71 + 42 x60 * x73 + 38 x60 * x75 + 94 x60 * x76
   + 46 x60 * x77 - 92 x60 * x79 - 20 x61 ^2 + 72 x61 * x62 - 74 x61 * x63
   - 98 x61 * x64 + 38 x61 * x65 + 58 x61 * x68 + 24 x61 * x69
   + 40 x61 * x71 + 20 x61 * x72 - 78 x61 * x73 - 72 x61 * x75
   - 64 x61 * x77 + 12 x61 * x78 + 2 x61 * x79 + 28 x62 ^2 + 74 x62 * x64
   - 86 x62 * x66 + 10 x62 * x67 + 18 x62 * x70 + 24 x62 * x71
   - 54 x62 * x77 + 72 x62 * x79 + 48 x63 * x64 + 40 x63 * x65
   - 90 x63 * x69 - 12 x63 * x70 + 72 x63 * x72 - 88 x63 * x74
   - 58 x63 * x76 - 2 x63 * x79 - 12 x64 * x66 + 64 x64 * x67
   + 54 x64 * x68 - 46 x64 * x70 - 10 x64 * x74 + 43 x65 ^2 + 84 x65 * x70
   - 52 x65 * x71 - 10 x65 * x72 + 78 x65 * x73 - 90 x65 * x74
   - 36 x65 * x75 + 28 x65 * x76 + 58 x65 * x78 - 12 x66 ^2 + 12 x66 * x67
   + 78 x66 * x70 - 26 x66 * x75 + 58 x66 * x76 + 50 x66 * x78
   + 4 x66 * x79 - 94 x67 * x69 + 34 x67 * x70 + 62 x67 * x71
   + 40 x67 * x72 - 76 x67 * x74 + 6 x67 * x75 - 64 x67 * x76
   - 66 x67 * x77 + 38 x67 * x78 + 50 x68 * x69 + 72 x68 * x70
   + 52 x68 * x78 + 30 x69 ^2 + 18 x69 * x72 - 38 x69 * x73 + 86 x69 * x74
   + 38 x69 * x75 - 94 x69 * x77 - 98 x69 * x79 + 94 x70 * x75
   + 32 x70 * x76 - 47 x71 ^2 + 80 x71 * x72 + 18 x71 * x75 + 38 x72 * x75
   + 35 x73 ^2 - 48 x73 * x75 + 10 x73 * x76 + 86 x73 * x77 + 48 x73 * x78
   + 6 x73 * x79 + 90 x74 * x78 - 22 x75 * x76 - 96 x75 * x77
   + 82 x77 * x78 + 30 x77 * x79 + 21 x78 ^2 + 70 x78 * x79 ] / 2 
Subject To
Bounds
 x0 <= 1
 x1 <= 1
 x2 <= 1
 x3 <= 1
 x4 <= 1
 x5 <= 1
 x6 <= 1
 x7 <= 1
 x8 <= 1
 x9 <= 1
 x10 <= 1
 x11 <= 1
 x12 <= 1
 x13 <= 1
 x14 <= 1
 x15 <= 1
 x16 <= 1
 x17 <= 1
 x18 <= 1
 x19 <= 1
 x20 <= 1
 x21 <= 1
 x22 <= 1
 x23 <= 1
 x24 <= 1
 x25 <= 1
 x26 <= 1
 x27 <= 1
 x28 <= 1
 x29 <= 1
 x30 <= 1
 x31 <= 1
 x32 <= 1
 x33 <= 1
 x34 <= 1
 x35 <= 1
 x36 <= 1
 x37 <= 1
 x38 <= 1
 x39 <= 1
 x40 <= 1
 x41 <= 1
 x42 <= 1
 x43 <= 1
 x44 <= 1
 x45 <= 1
 x46 <= 1
 x47 <= 1
 x48 <= 1
 x49 <= 1
 x50 <= 1
 x51 <= 1
 x52 <= 1
 x53 <= 1
 x54 <= 1
 x55 <= 1
 x56 <= 1
 x57 <= 1
 x58 <= 1
 x59 <= 1
 x60 <= 1
 x61 <= 1
 x62 <= 1
 x63 <= 1
 x64 <= 1
 x65 <= 1
 x66 <= 1
 x67 <= 1
 x68 <= 1
 x69 <= 1
 x70 <= 1
 x71 <= 1
 x72 <= 1
 x73 <= 1
 x74 <= 1
 x75 <= 1
 x76 <= 1
 x77 <= 1
 x78 <= 1
 x79 <= 1
End
